echo			screen     
units			real
boundary		p p p
atom_style		full
pair_style		lj/cut/coul/long 12.0 
pair_modify		shift yes
read_data		model.lmpsys

log		        dd2.log

bond_style		harmonic
angle_style		harmonic

bond_coeff		1 1000.0 1.00
angle_coeff		1 1000.0 109.47

pair_coeff		* *  0.0 0.0
pair_coeff		1 1  0.155300 3.1660 	######### SPC/E water model

group			water type 1 2
group			fluid type 1 2 
group			oxy type 1

kspace_style		pppm 0.00001
velocity		all create 300.0 123456 mom yes rot yes

minimize		1.0e-5 1.0e-6 100000 100000
reset_timestep		0

compute			Twat water temp/com

fix			fWshk fluid shake 0.0001 20 0 b 1 a 1
fix			f0 fluid nve
fix			fmom fluid momentum 10 linear 1 1 1 angular

thermo_style		custom step temp press density pe ke etotal c_Twat pxx pyy pzz lx ly lz
thermo			5000
thermo_modify		flush yes
run			1000#10000			###################### 0.01 ns

unfix			f0
unfix			fmom

reset_timestep		0

fix			fNvt water nvt temp 300.0 300.0 100.0 
#fix_modify		fNvt temp Twat

dump			dmp all dcd 2000 equil0.dcd
thermo			10000
run			1000#400000				#################### 0.4 ns
undump			dmp
reset_timestep		0

unfix			fNvt

fix                     fNpt water npt temp 300.0 300.0 100.0 iso 1.0 1.0 1000.0

dump                    dmp1 all dcd 5000 equil1.dcd 
thermo                  10000
run                     400000 
undump			dmp1
reset_timestep		0

dump                    dmp2 all dcd 5000 equil2.dcd 
variable		px equal pxx
variable		py equal pyy
variable		pz equal pzz

compute			cWat oxy chunk/atom bin/1d z center 0.1 units box 
#compute			cWat1 oxy chunk/atom bin/1d z center 0.2 units box 
#compute			cWat2 oxy chunk/atom bin/1d z center 0.3 units box 
#compute			cWat3 oxy chunk/atom bin/1d z center 0.4 units box
#compute			cWat4 oxy chunk/atom bin/1d z center 0.5 units box 

fix			fWat1 oxy ave/chunk 20 5000 100000 cWat density/number ave running file waterdens02.txt
#fix			fWat2 oxy ave/chunk 20 5000 100000 cWat1 density/number ave running file waterdens01.txt
#fix			fWat3 oxy ave/chunk 20 5000 100000 cWat2 density/number ave running file waterdens02.txt
#fix			fWat4 oxy ave/chunk 20 5000 100000 cWat3 density/number ave running file waterdens03.txt
#fix			fWat5 oxy ave/chunk 20 5000 100000 cWat4 density/number ave running file waterdens04.txt
fix			fpres all ave/time 20 5000 100000 v_px v_py v_pz file pressure1.txt

#dump_modify		dmp1 append yes
thermo			10000
run			1000000				############# 1ns	

unfix                   fNpt
unfix			fWat1
unfix			fpres

write_restart		equil0.res
